(set-logic QF_NRA)
(set-info :source |Benchmarks generated from hycomp (https://es-static.fbk.eu/tools/hycomp/). BMC instances of non-linear hybrid automata taken from: Alessandro Cimatti, Sergio Mover, Stefano Tonetta, A quantifier-free SMT encoding of non-linear hybrid automata, FMCAD 2012 and Alessandro Cimatti, Sergio Mover, Stefano Tonetta, Quantier-free encoding of invariants for Hybrid Systems, Formal Methods in System Design. This instance solves a BMC problem of depth 1 and uses the quantifier free encoding with equivalences and lemmas encoding. Contacts: Sergio Mover (mover@fbk.eu), Stefano Tonetta (tonettas@fbk.eu), Alessandro Cimatti (cimatti@fbk.eu).|)
(set-info :smt-lib-version 2.0)
(set-info :category "industrial")
(set-info :status unsat)
;; MathSAT API call trace
;; generated on Mon Mar 19 10:43:22 2012
(declare-fun b.y__AT1 () Real)
(declare-fun b.x__AT0 () Real)
(declare-fun b.speed_y__AT0 () Real)
(declare-fun b.event_is_timed__AT0 () Bool)
(declare-fun b.speed_x__AT0 () Real)
(declare-fun b.event_is_timed__AT1 () Bool)
(declare-fun b.time__AT0 () Real)
(declare-fun b.speed_y__AT1 () Real)
(declare-fun b.y__AT0 () Real)
(declare-fun b.counter.0__AT0 () Bool)
(declare-fun b.counter.1__AT0 () Bool)
(declare-fun b.time__AT1 () Real)
(declare-fun b.bool_atom__AT0 () Bool)
(declare-fun b.counter.2__AT0 () Bool)
(declare-fun b.delta__AT1 () Real)
(declare-fun b.EVENT.0__AT1 () Bool)
(declare-fun b.delta__AT0 () Real)
(declare-fun b.speed_x__AT1 () Real)
(declare-fun b.EVENT.0__AT0 () Bool)
(declare-fun b.x__AT1 () Real)
(declare-fun b.counter.0__AT1 () Bool)
(declare-fun b.EVENT.1__AT0 () Bool)
(declare-fun b.counter.1__AT1 () Bool)
(declare-fun b.counter.2__AT1 () Bool)
(declare-fun b.counter.3__AT1 () Bool)
(declare-fun b.bool_atom__AT1 () Bool)
(declare-fun b.EVENT.1__AT1 () Bool)
(declare-fun b.speed_loss__AT0 () Real)
(declare-fun b.counter.3__AT0 () Bool)
(assert (let ((.def_383 (* (- 1.0) b.speed_x__AT1)))
(let ((.def_384 (* b.speed_x__AT1 .def_383)))
(let ((.def_385 (* (- 1.0) .def_384)))
(let ((.def_413 (* 2.0 .def_385)))
(let ((.def_414 (* b.delta__AT1 .def_413)))
(let ((.def_415 (* 5.0 .def_414)))
(let ((.def_320 (* (- 1.0) b.x__AT1)))
(let ((.def_396 (* b.speed_x__AT1 .def_320)))
(let ((.def_418 (* (- 5.0) .def_396)))
(let ((.def_424 (+ .def_418 .def_415)))
(let ((.def_391 (* b.x__AT1 .def_383)))
(let ((.def_416 (* (- 5.0) .def_391)))
(let ((.def_425 (+ .def_416 .def_424)))
(let ((.def_420 (* (- 49.0) b.delta__AT1)))
(let ((.def_426 (+ .def_420 .def_425)))
(let ((.def_422 (* 5.0 b.speed_y__AT1)))
(let ((.def_427 (+ .def_422 .def_426)))
(let ((.def_446 (<= .def_427 0.0 )))
(let ((.def_447 (not .def_446)))
(let ((.def_397 (* (- 1.0) .def_396)))
(let ((.def_392 (* (- 1.0) .def_391)))
(let ((.def_430 (+ .def_392 .def_397)))
(let ((.def_431 (+ b.speed_y__AT1 .def_430)))
(let ((.def_444 (<= .def_431 0.0 )))
(let ((.def_469 (or .def_444 .def_447)))
(let ((.def_432 (<= 0.0 .def_431)))
(let ((.def_433 (not .def_432)))
(let ((.def_428 (<= 0.0 .def_427)))
(let ((.def_468 (or .def_428 .def_433)))
(let ((.def_470 (and .def_468 .def_469)))
(let ((.def_467 (<= (- (/ 49 10)) .def_384)))
(let ((.def_471 (or .def_467 .def_470)))
(let ((.def_429 (not .def_428)))
(let ((.def_464 (or .def_429 .def_432)))
(let ((.def_445 (not .def_444)))
(let ((.def_463 (or .def_445 .def_446)))
(let ((.def_465 (and .def_463 .def_464)))
(let ((.def_462 (<= .def_384 (- (/ 49 10)))))
(let ((.def_466 (or .def_462 .def_465)))
(let ((.def_472 (and .def_466 .def_471)))
(let ((.def_459 (and .def_444 .def_446)))
(let ((.def_458 (and .def_428 .def_432)))
(let ((.def_460 (or .def_458 .def_459)))
(let ((.def_398 (* b.delta__AT1 .def_397)))
(let ((.def_399 (* 10.0 .def_398)))
(let ((.def_393 (* b.delta__AT1 .def_392)))
(let ((.def_394 (* 10.0 .def_393)))
(let ((.def_405 (+ .def_394 .def_399)))
(let ((.def_382 (* b.delta__AT1 b.delta__AT1)))
(let ((.def_386 (* .def_382 .def_385)))
(let ((.def_387 (* 10.0 .def_386)))
(let ((.def_406 (+ .def_387 .def_405)))
(let ((.def_389 (* (- 49.0) .def_382)))
(let ((.def_407 (+ .def_389 .def_406)))
(let ((.def_380 (* b.speed_y__AT1 b.delta__AT1)))
(let ((.def_381 (* 10.0 .def_380)))
(let ((.def_408 (+ .def_381 .def_407)))
(let ((.def_366 (* b.x__AT1 .def_320)))
(let ((.def_401 (* (- 10.0) .def_366)))
(let ((.def_409 (+ .def_401 .def_408)))
(let ((.def_403 (* 10.0 b.y__AT1)))
(let ((.def_410 (+ .def_403 .def_409)))
(let ((.def_438 (<= .def_410 0.0 )))
(let ((.def_452 (not .def_438)))
(let ((.def_436 (<= b.y__AT1 .def_366)))
(let ((.def_453 (or .def_436 .def_452)))
(let ((.def_367 (<= .def_366 b.y__AT1)))
(let ((.def_450 (not .def_367)))
(let ((.def_411 (<= 0.0 .def_410)))
(let ((.def_451 (or .def_411 .def_450)))
(let ((.def_454 (and .def_451 .def_453)))
(let ((.def_448 (or .def_445 .def_447)))
(let ((.def_449 (not .def_448)))
(let ((.def_455 (or .def_449 .def_454)))
(let ((.def_440 (not .def_411)))
(let ((.def_441 (or .def_367 .def_440)))
(let ((.def_437 (not .def_436)))
(let ((.def_439 (or .def_437 .def_438)))
(let ((.def_442 (and .def_439 .def_441)))
(let ((.def_434 (or .def_429 .def_433)))
(let ((.def_435 (not .def_434)))
(let ((.def_443 (or .def_435 .def_442)))
(let ((.def_456 (and .def_443 .def_455)))
(let ((.def_412 (and .def_367 .def_411)))
(let ((.def_457 (and .def_412 .def_456)))
(let ((.def_461 (and .def_457 .def_460)))
(let ((.def_473 (and .def_461 .def_472)))
(let ((.def_72 (<= b.speed_loss__AT0 (/ 1 2))))
(let ((.def_69 (<= (/ 1 10) b.speed_loss__AT0)))
(let ((.def_73 (and .def_69 .def_72)))
(let ((.def_474 (and .def_73 .def_473)))
(let ((.def_41 (not b.counter.0__AT0)))
(let ((.def_39 (not b.counter.1__AT0)))
(let ((.def_42 (and .def_39 .def_41)))
(let ((.def_375 (or .def_42 b.counter.3__AT0)))
(let ((.def_372 (or .def_42 b.counter.2__AT0)))
(let ((.def_44 (not b.counter.2__AT0)))
(let ((.def_371 (or .def_39 .def_44)))
(let ((.def_373 (and .def_371 .def_372)))
(let ((.def_47 (not b.counter.3__AT0)))
(let ((.def_374 (or .def_47 .def_373)))
(let ((.def_376 (and .def_374 .def_375)))
(let ((.def_368 (and .def_73 .def_367)))
(let ((.def_363 (not b.EVENT.0__AT1)))
(let ((.def_361 (not b.EVENT.1__AT1)))
(let ((.def_364 (or .def_361 .def_363)))
(let ((.def_9 (not b.counter.0__AT1)))
(let ((.def_6 (not b.counter.1__AT1)))
(let ((.def_354 (or .def_6 .def_9)))
(let ((.def_358 (or b.counter.3__AT1 .def_354)))
(let ((.def_355 (or b.counter.2__AT1 .def_354)))
(let ((.def_4 (not b.counter.2__AT1)))
(let ((.def_353 (or .def_4 .def_9)))
(let ((.def_356 (and .def_353 .def_355)))
(let ((.def_14 (not b.counter.3__AT1)))
(let ((.def_357 (or .def_14 .def_356)))
(let ((.def_359 (and .def_357 .def_358)))
(let ((.def_365 (and .def_359 .def_364)))
(let ((.def_369 (and .def_365 .def_368)))
(let ((.def_348 (<= 0.0 b.delta__AT0)))
(let ((.def_60 (not b.EVENT.0__AT0)))
(let ((.def_58 (not b.EVENT.1__AT0)))
(let ((.def_182 (and .def_58 .def_60)))
(let ((.def_184 (not .def_182)))
(let ((.def_349 (or .def_184 .def_348)))
(let ((.def_350 (or b.EVENT.1__AT0 .def_349)))
(let ((.def_223 (= b.bool_atom__AT0 b.bool_atom__AT1)))
(let ((.def_218 (= b.counter.0__AT1 b.counter.0__AT0)))
(let ((.def_216 (= b.counter.1__AT1 b.counter.1__AT0)))
(let ((.def_214 (= b.counter.2__AT1 b.counter.2__AT0)))
(let ((.def_213 (= b.counter.3__AT1 b.counter.3__AT0)))
(let ((.def_215 (and .def_213 .def_214)))
(let ((.def_217 (and .def_215 .def_216)))
(let ((.def_219 (and .def_217 .def_218)))
(let ((.def_344 (and .def_219 .def_223)))
(let ((.def_345 (or .def_184 .def_344)))
(let ((.def_346 (or b.EVENT.1__AT0 .def_345)))
(let ((.def_333 (* (- 10.0) b.y__AT1)))
(let ((.def_81 (* b.delta__AT0 b.delta__AT0)))
(let ((.def_90 (* (- 49.0) .def_81)))
(let ((.def_336 (+ .def_90 .def_333)))
(let ((.def_79 (* b.speed_y__AT0 b.delta__AT0)))
(let ((.def_80 (* 10.0 .def_79)))
(let ((.def_337 (+ .def_80 .def_336)))
(let ((.def_105 (* 10.0 b.y__AT0)))
(let ((.def_338 (+ .def_105 .def_337)))
(let ((.def_339 (= .def_338 0.0 )))
(let ((.def_327 (* (- 5.0) b.speed_y__AT1)))
(let ((.def_124 (* (- 49.0) b.delta__AT0)))
(let ((.def_328 (+ .def_124 .def_327)))
(let ((.def_126 (* 5.0 b.speed_y__AT0)))
(let ((.def_329 (+ .def_126 .def_328)))
(let ((.def_330 (= .def_329 0.0 )))
(let ((.def_319 (* b.speed_x__AT0 b.delta__AT0)))
(let ((.def_323 (+ .def_320 .def_319)))
(let ((.def_324 (+ b.x__AT0 .def_323)))
(let ((.def_325 (= .def_324 0.0 )))
(let ((.def_208 (= b.speed_x__AT0 b.speed_x__AT1)))
(let ((.def_326 (and .def_208 .def_325)))
(let ((.def_331 (and .def_326 .def_330)))
(let ((.def_340 (and .def_331 .def_339)))
(let ((.def_341 (or .def_184 .def_340)))
(let ((.def_205 (= b.y__AT0 b.y__AT1)))
(let ((.def_202 (= b.x__AT0 b.x__AT1)))
(let ((.def_313 (and .def_202 .def_205)))
(let ((.def_314 (and .def_208 .def_313)))
(let ((.def_211 (= b.speed_y__AT0 b.speed_y__AT1)))
(let ((.def_315 (and .def_211 .def_314)))
(let ((.def_310 (= b.delta__AT0 0.0 )))
(let ((.def_311 (and .def_182 .def_310)))
(let ((.def_312 (not .def_311)))
(let ((.def_316 (or .def_312 .def_315)))
(let ((.def_317 (or b.EVENT.1__AT0 .def_316)))
(let ((.def_302 (and .def_208 .def_211)))
(let ((.def_303 (and .def_219 .def_302)))
(let ((.def_304 (or b.bool_atom__AT0 .def_303)))
(let ((.def_278 (or .def_9 b.counter.0__AT0)))
(let ((.def_277 (or b.counter.0__AT1 .def_41)))
(let ((.def_279 (and .def_277 .def_278)))
(let ((.def_280 (and .def_6 .def_279)))
(let ((.def_281 (or b.counter.1__AT0 .def_280)))
(let ((.def_276 (or b.counter.1__AT1 .def_39)))
(let ((.def_282 (and .def_276 .def_281)))
(let ((.def_293 (and .def_4 .def_282)))
(let ((.def_294 (or b.counter.2__AT0 .def_293)))
(let ((.def_288 (and .def_6 .def_41)))
(let ((.def_289 (or b.counter.1__AT0 .def_288)))
(let ((.def_290 (and .def_276 .def_289)))
(let ((.def_291 (and b.counter.2__AT1 .def_290)))
(let ((.def_292 (or .def_44 .def_291)))
(let ((.def_295 (and .def_292 .def_294)))
(let ((.def_296 (and b.counter.3__AT1 .def_295)))
(let ((.def_297 (or b.counter.3__AT0 .def_296)))
(let ((.def_283 (and b.counter.2__AT1 .def_282)))
(let ((.def_284 (or b.counter.2__AT0 .def_283)))
(let ((.def_272 (or b.counter.1__AT1 b.counter.1__AT0)))
(let ((.def_270 (and .def_6 b.counter.0__AT1)))
(let ((.def_271 (or .def_39 .def_270)))
(let ((.def_273 (and .def_271 .def_272)))
(let ((.def_274 (and .def_4 .def_273)))
(let ((.def_275 (or .def_44 .def_274)))
(let ((.def_285 (and .def_275 .def_284)))
(let ((.def_286 (and .def_14 .def_285)))
(let ((.def_287 (or .def_47 .def_286)))
(let ((.def_298 (and .def_287 .def_297)))
(let ((.def_261 (* b.speed_y__AT0 b.speed_y__AT0)))
(let ((.def_260 (* b.speed_x__AT0 b.speed_x__AT0)))
(let ((.def_262 (+ .def_260 .def_261)))
(let ((.def_242 (* (- 1.0) b.speed_loss__AT0)))
(let ((.def_243 (+ 1.0 .def_242)))
(let ((.def_259 (* .def_243 .def_243)))
(let ((.def_263 (* .def_259 .def_262)))
(let ((.def_265 (* (- 1.0) .def_263)))
(let ((.def_256 (* b.speed_y__AT1 b.speed_y__AT1)))
(let ((.def_266 (+ .def_256 .def_265)))
(let ((.def_254 (* b.speed_x__AT1 b.speed_x__AT1)))
(let ((.def_267 (+ .def_254 .def_266)))
(let ((.def_268 (= .def_267 0.0 )))
(let ((.def_247 (* b.speed_y__AT0 .def_243)))
(let ((.def_230 (* (- 2.0) b.x__AT0)))
(let ((.def_231 (* (- 1.0) .def_230)))
(let ((.def_244 (* .def_231 .def_243)))
(let ((.def_245 (* b.speed_x__AT0 .def_244)))
(let ((.def_250 (+ .def_245 .def_247)))
(let ((.def_239 (* (- 2.0) b.x__AT1)))
(let ((.def_240 (* (- 1.0) .def_239)))
(let ((.def_241 (* b.speed_x__AT1 .def_240)))
(let ((.def_251 (+ .def_241 .def_250)))
(let ((.def_252 (+ b.speed_y__AT1 .def_251)))
(let ((.def_253 (= .def_252 0.0 )))
(let ((.def_269 (and .def_253 .def_268)))
(let ((.def_299 (and .def_269 .def_298)))
(let ((.def_238 (not b.bool_atom__AT0)))
(let ((.def_300 (or .def_238 .def_299)))
(let ((.def_232 (* b.speed_x__AT0 .def_231)))
(let ((.def_233 (+ b.speed_y__AT0 .def_232)))
(let ((.def_234 (<= 0.0 .def_233)))
(let ((.def_235 (not .def_234)))
(let ((.def_64 (* (- 1.0) b.x__AT0)))
(let ((.def_65 (* b.x__AT0 .def_64)))
(let ((.def_228 (= b.y__AT0 .def_65)))
(let ((.def_236 (and .def_228 .def_235)))
(let ((.def_237 (= b.bool_atom__AT0 .def_236)))
(let ((.def_301 (and .def_237 .def_300)))
(let ((.def_305 (and .def_301 .def_304)))
(let ((.def_306 (and .def_202 .def_305)))
(let ((.def_307 (and .def_205 .def_306)))
(let ((.def_308 (or .def_182 .def_307)))
(let ((.def_309 (or b.EVENT.1__AT0 .def_308)))
(let ((.def_318 (and .def_309 .def_317)))
(let ((.def_342 (and .def_318 .def_341)))
(let ((.def_189 (= b.time__AT0 b.time__AT1)))
(let ((.def_203 (and .def_189 .def_202)))
(let ((.def_206 (and .def_203 .def_205)))
(let ((.def_209 (and .def_206 .def_208)))
(let ((.def_212 (and .def_209 .def_211)))
(let ((.def_220 (and .def_212 .def_219)))
(let ((.def_224 (and .def_220 .def_223)))
(let ((.def_225 (or .def_58 .def_224)))
(let ((.def_192 (* (- 1.0) b.time__AT1)))
(let ((.def_195 (+ b.delta__AT0 .def_192)))
(let ((.def_196 (+ b.time__AT0 .def_195)))
(let ((.def_197 (= .def_196 0.0 )))
(let ((.def_198 (or .def_184 .def_197)))
(let ((.def_199 (or b.EVENT.1__AT0 .def_198)))
(let ((.def_190 (or .def_182 .def_189)))
(let ((.def_191 (or b.EVENT.1__AT0 .def_190)))
(let ((.def_200 (and .def_191 .def_199)))
(let ((.def_226 (and .def_200 .def_225)))
(let ((.def_186 (= .def_184 b.event_is_timed__AT1)))
(let ((.def_183 (= b.event_is_timed__AT0 .def_182)))
(let ((.def_187 (and .def_183 .def_186)))
(let ((.def_227 (and .def_187 .def_226)))
(let ((.def_343 (and .def_227 .def_342)))
(let ((.def_347 (and .def_343 .def_346)))
(let ((.def_351 (and .def_347 .def_350)))
(let ((.def_352 (and .def_58 .def_351)))
(let ((.def_370 (and .def_352 .def_369)))
(let ((.def_377 (and .def_370 .def_376)))
(let ((.def_82 (* (- 1.0) b.speed_x__AT0)))
(let ((.def_83 (* b.speed_x__AT0 .def_82)))
(let ((.def_84 (* (- 1.0) .def_83)))
(let ((.def_115 (* 2.0 .def_84)))
(let ((.def_116 (* b.delta__AT0 .def_115)))
(let ((.def_118 (* 5.0 .def_116)))
(let ((.def_97 (* b.speed_x__AT0 .def_64)))
(let ((.def_122 (* (- 5.0) .def_97)))
(let ((.def_128 (+ .def_122 .def_118)))
(let ((.def_92 (* b.x__AT0 .def_82)))
(let ((.def_120 (* (- 5.0) .def_92)))
(let ((.def_129 (+ .def_120 .def_128)))
(let ((.def_130 (+ .def_124 .def_129)))
(let ((.def_131 (+ .def_126 .def_130)))
(let ((.def_150 (<= .def_131 0.0 )))
(let ((.def_151 (not .def_150)))
(let ((.def_98 (* (- 1.0) .def_97)))
(let ((.def_93 (* (- 1.0) .def_92)))
(let ((.def_134 (+ .def_93 .def_98)))
(let ((.def_135 (+ b.speed_y__AT0 .def_134)))
(let ((.def_148 (<= .def_135 0.0 )))
(let ((.def_175 (or .def_148 .def_151)))
(let ((.def_136 (<= 0.0 .def_135)))
(let ((.def_137 (not .def_136)))
(let ((.def_132 (<= 0.0 .def_131)))
(let ((.def_174 (or .def_132 .def_137)))
(let ((.def_176 (and .def_174 .def_175)))
(let ((.def_173 (<= (- (/ 49 10)) .def_83)))
(let ((.def_177 (or .def_173 .def_176)))
(let ((.def_133 (not .def_132)))
(let ((.def_170 (or .def_133 .def_136)))
(let ((.def_149 (not .def_148)))
(let ((.def_169 (or .def_149 .def_150)))
(let ((.def_171 (and .def_169 .def_170)))
(let ((.def_168 (<= .def_83 (- (/ 49 10)))))
(let ((.def_172 (or .def_168 .def_171)))
(let ((.def_178 (and .def_172 .def_177)))
(let ((.def_163 (and .def_148 .def_150)))
(let ((.def_162 (and .def_132 .def_136)))
(let ((.def_164 (or .def_162 .def_163)))
(let ((.def_99 (* b.delta__AT0 .def_98)))
(let ((.def_100 (* 10.0 .def_99)))
(let ((.def_94 (* b.delta__AT0 .def_93)))
(let ((.def_95 (* 10.0 .def_94)))
(let ((.def_107 (+ .def_95 .def_100)))
(let ((.def_85 (* .def_81 .def_84)))
(let ((.def_86 (* 10.0 .def_85)))
(let ((.def_108 (+ .def_86 .def_107)))
(let ((.def_109 (+ .def_90 .def_108)))
(let ((.def_110 (+ .def_80 .def_109)))
(let ((.def_103 (* (- 10.0) .def_65)))
(let ((.def_111 (+ .def_103 .def_110)))
(let ((.def_112 (+ .def_105 .def_111)))
(let ((.def_142 (<= .def_112 0.0 )))
(let ((.def_156 (not .def_142)))
(let ((.def_140 (<= b.y__AT0 .def_65)))
(let ((.def_157 (or .def_140 .def_156)))
(let ((.def_66 (<= .def_65 b.y__AT0)))
(let ((.def_154 (not .def_66)))
(let ((.def_113 (<= 0.0 .def_112)))
(let ((.def_155 (or .def_113 .def_154)))
(let ((.def_158 (and .def_155 .def_157)))
(let ((.def_152 (or .def_149 .def_151)))
(let ((.def_153 (not .def_152)))
(let ((.def_159 (or .def_153 .def_158)))
(let ((.def_144 (not .def_113)))
(let ((.def_145 (or .def_66 .def_144)))
(let ((.def_141 (not .def_140)))
(let ((.def_143 (or .def_141 .def_142)))
(let ((.def_146 (and .def_143 .def_145)))
(let ((.def_138 (or .def_133 .def_137)))
(let ((.def_139 (not .def_138)))
(let ((.def_147 (or .def_139 .def_146)))
(let ((.def_160 (and .def_147 .def_159)))
(let ((.def_114 (and .def_66 .def_113)))
(let ((.def_161 (and .def_114 .def_160)))
(let ((.def_165 (and .def_161 .def_164)))
(let ((.def_179 (and .def_165 .def_178)))
(let ((.def_180 (and .def_73 .def_179)))
(let ((.def_74 (and .def_66 .def_73)))
(let ((.def_61 (or .def_58 .def_60)))
(let ((.def_51 (or .def_39 .def_41)))
(let ((.def_55 (or b.counter.3__AT0 .def_51)))
(let ((.def_52 (or b.counter.2__AT0 .def_51)))
(let ((.def_50 (or .def_41 .def_44)))
(let ((.def_53 (and .def_50 .def_52)))
(let ((.def_54 (or .def_47 .def_53)))
(let ((.def_56 (and .def_54 .def_55)))
(let ((.def_62 (and .def_56 .def_61)))
(let ((.def_75 (and .def_62 .def_74)))
(let ((.def_45 (and .def_42 .def_44)))
(let ((.def_48 (and .def_45 .def_47)))
(let ((.def_36 (= b.speed_y__AT0 1.0 )))
(let ((.def_33 (= b.speed_x__AT0 1.0 )))
(let ((.def_29 (= b.y__AT0 10.0 )))
(let ((.def_25 (= b.x__AT0 0.0 )))
(let ((.def_21 (= b.time__AT0 0.0 )))
(let ((.def_23 (and .def_21 b.event_is_timed__AT0)))
(let ((.def_26 (and .def_23 .def_25)))
(let ((.def_30 (and .def_26 .def_29)))
(let ((.def_34 (and .def_30 .def_33)))
(let ((.def_37 (and .def_34 .def_36)))
(let ((.def_49 (and .def_37 .def_48)))
(let ((.def_76 (and .def_49 .def_75)))
(let ((.def_10 (and .def_6 .def_9)))
(let ((.def_16 (or .def_10 b.counter.3__AT1)))
(let ((.def_11 (or b.counter.2__AT1 .def_10)))
(let ((.def_7 (or .def_4 .def_6)))
(let ((.def_12 (and .def_7 .def_11)))
(let ((.def_15 (or .def_12 .def_14)))
(let ((.def_17 (and .def_15 .def_16)))
(let ((.def_18 (not .def_17)))
(let ((.def_77 (and .def_18 .def_76)))
(let ((.def_181 (and .def_77 .def_180)))
(let ((.def_378 (and .def_181 .def_377)))
(let ((.def_475 (and .def_378 .def_474)))
.def_475))))))))))))))))))))))))))))))))))))))))))))))))))))))))))))))))))))))))))))))))))))))))))))))))))))))))))))))))))))))))))))))))))))))))))))))))))))))))))))))))))))))))))))))))))))))))))))))))))))))))))))))))))))))))))))))))))))))))))))))))))))))))))))))))))))))))))))))))))))))))))))))))))))))))))))))))))))))))))))))))))))))))))))))))))))))))))))))))))))))))))))))))))))))))))))))))))))))))))))
(check-sat)
(exit)
